n = 50;
C = 6589;
w = [388,304,299,321,220,6,461,176,468,224,78,121,337,349,66,245,89,75,417,246,311,93,206,111,354,291,374,434,130,465,353,361,242,156,317,66,472,212,262,119,72,476,183,227,369,421,343,415,194,259];
p = [375,312,257,297,216,21,445,218,422,203,119,160,289,341,74,240,50,111,368,204,269,121,211,141,354,326,367,462,147,434,311,327,276,197,330,48,432,215,268,89,43,447,162,229,325,438,378,409,215,238];
